decision_x1=[0,4];
decision_x2=[0,4];
decision_x3=[0,4];
decision_x4=[0,4];
decision_x5=[0,4];
decision_x6=[0,4];
decision_x7=[0,4];
decision_x8=[0,4];
decision_x9=[0,4];
decision_x10=[0,4];
decision_x11=[0,4];
decision_x12=[0,4];
random_y1=[0,4];
random_y2=[0,4];
random_y3=[0,4];
random_y4=[0,4];
random_y5=[0,4];
random_y6=[0,4];
constraint_x2_x1=[
0,1,5.3|
0,2,8.4|
0,3,4.5|
0,4,7.8e-05|
1,0,7.6|
1,2,0.49|
1,3,6.7|
1,4,5.9|
2,0,5|
2,1,8.9|
2,3,9.4|
2,4,1.2|
3,0,1.5|
3,1,2.5|
3,2,8.7|
3,4,9.6|
4,0,0.16|
4,1,6.3|
4,2,1.7|
4,3,0.49|
];
constraint_x3_x1=[
0,1,4.2|
0,2,6.7|
0,3,9|
0,4,4.2|
1,0,0.18|
1,2,3.3|
1,3,8|
1,4,1.6|
2,0,0.66|
2,1,4|
2,3,0.46|
2,4,9|
3,0,8.4|
3,1,6.4|
3,2,5.4|
3,4,2.9|
4,0,6.7|
4,1,6.4|
4,2,0.14|
4,3,2.2|
];
constraint_x4_x1=[
0,1,3.4|
0,2,8.3|
0,3,1.3|
0,4,4.5|
1,0,4.1|
1,2,6.8|
1,3,4.2|
1,4,8.8|
2,0,7.7|
2,1,6|
2,3,3.5|
2,4,9.5|
3,0,1.8|
3,1,2.2|
3,2,2.1|
3,4,6.8|
4,0,6.2|
4,1,5.9|
4,2,9.9|
4,3,3.8|
];
constraint_x4_x2=[
0,1,5.4|
0,2,8.6|
0,3,3.6|
0,4,5.5|
1,0,8.9|
1,2,9.2|
1,3,1.9|
1,4,1.7|
2,0,4.7|
2,1,4.3|
2,3,4.6|
2,4,6.7|
3,0,6.6|
3,1,4.3|
3,2,3.4|
3,4,9|
4,0,3.8|
4,1,1.9|
4,2,2.7|
4,3,1.9|
];
constraint_x4_x3=[
0,1,6.2|
0,2,5|
0,3,9.9|
0,4,7.6|
1,0,6.5|
1,2,9.8|
1,3,8.1|
1,4,8.1|
2,0,6.8|
2,1,3.4|
2,3,8.2|
2,4,7.8|
3,0,5.5|
3,1,9.1|
3,2,1.7|
3,4,2.7|
4,0,3.8|
4,1,0.41|
4,2,3|
4,3,0.48|
];
constraint_x5_x1=[
0,1,1.4|
0,2,6.9|
0,3,1.4|
0,4,4|
1,0,6.1|
1,2,2.1|
1,3,4.6|
1,4,6.5|
2,0,4.2|
2,1,3.1|
2,3,6|
2,4,5.3|
3,0,9.2|
3,1,8.1|
3,2,3.1|
3,4,0.66|
4,0,0.48|
4,1,0.61|
4,2,1.4|
4,3,1.2|
];
constraint_x5_x2=[
0,1,9.4|
0,2,3.3|
0,3,2.6|
0,4,5.3|
1,0,0.98|
1,2,8.6|
1,3,7.5|
1,4,0.5|
2,0,7.9|
2,1,5.8|
2,3,7.9|
2,4,4.5|
3,0,2.7|
3,1,3.6|
3,2,7.9|
3,4,8.3|
4,0,6.5|
4,1,2.7|
4,2,1.2|
4,3,3.7|
];
constraint_x6_x3=[
0,1,5.9|
0,2,4.9|
0,3,1.8|
0,4,1.5|
1,0,2.5|
1,2,1.5|
1,3,0.16|
1,4,8.7|
2,0,2.1|
2,1,7|
2,3,6.8|
2,4,8.1|
3,0,2.6|
3,1,0.38|
3,2,3.4|
3,4,6.6|
4,0,9.3|
4,1,10|
4,2,2.3|
4,3,4.9|
];
constraint_x7_x1=[
0,1,6.3|
0,2,6.2|
0,3,1.4|
0,4,4|
1,0,4.4|
1,2,0.43|
1,3,5.8|
1,4,2.6|
2,0,5.5|
2,1,0.3|
2,3,9.6|
2,4,7|
3,0,8.8|
3,1,6.6|
3,2,9.9|
3,4,1.7|
4,0,3.8|
4,1,5.2|
4,2,4.4|
4,3,8.7|
];
constraint_x7_x6=[
0,1,5.3|
0,2,9|
0,3,8.7|
0,4,3.9|
1,0,8.1|
1,2,8|
1,3,6.1|
1,4,1.8|
2,0,5.7|
2,1,9.7|
2,3,8.9|
2,4,4|
3,0,1|
3,1,5.2|
3,2,7.6|
3,4,6.3|
4,0,8.8|
4,1,3.8|
4,2,8.2|
4,3,5.3|
];
constraint_x8_x2=[
0,1,3.6|
0,2,3.2|
0,3,8.6|
0,4,7.3|
1,0,0.48|
1,2,3.5|
1,3,5.8|
1,4,5.8|
2,0,2.8|
2,1,0.29|
2,3,4.3|
2,4,0.6|
3,0,3.1|
3,1,8.5|
3,2,1.5|
3,4,7.6|
4,0,6.8|
4,1,8.5|
4,2,2.6|
4,3,8.3|
];
constraint_x8_x4=[
0,1,8.9|
0,2,0.65|
0,3,2.3|
0,4,2.4|
1,0,5|
1,2,5.8|
1,3,6.1|
1,4,9.9|
2,0,6.6|
2,1,7.2|
2,3,9.5|
2,4,9.3|
3,0,0.83|
3,1,2.6|
3,2,9.4|
3,4,2.5|
4,0,1.5|
4,1,8.1|
4,2,7.8|
4,3,2.9|
];
constraint_x8_x5=[
0,1,2.9|
0,2,8.5|
0,3,3|
0,4,0.2|
1,0,2.4|
1,2,4.8|
1,3,5.1|
1,4,1.4|
2,0,3.8|
2,1,3.9|
2,3,9.2|
2,4,1.2|
3,0,8|
3,1,5.7|
3,2,4|
3,4,4.3|
4,0,5|
4,1,3.3|
4,2,0.41|
4,3,9.6|
];
constraint_x8_x6=[
0,1,7.8|
0,2,3|
0,3,5.4|
0,4,1.6|
1,0,6.9|
1,2,2.2|
1,3,9.1|
1,4,9.2|
2,0,6|
2,1,4.3|
2,3,3.2|
2,4,8.1|
3,0,7.5|
3,1,1.8|
3,2,6.5|
3,4,7.8|
4,0,4.2|
4,1,1.8|
4,2,2|
4,3,1.9|
];
constraint_x9_x3=[
0,1,4.8|
0,2,8.9|
0,3,2.6|
0,4,1.9|
1,0,4.1|
1,2,6.5|
1,3,8.9|
1,4,5.2|
2,0,6.6|
2,1,9|
2,3,7.7|
2,4,4.3|
3,0,0.88|
3,1,4.3|
3,2,7.6|
3,4,8|
4,0,0.54|
4,1,5.5|
4,2,5.9|
4,3,7.6|
];
constraint_x9_x5=[
0,1,0.96|
0,2,4.1|
0,3,5.9|
0,4,1|
1,0,9|
1,2,9.4|
1,3,9.2|
1,4,8|
2,0,7.2|
2,1,6.5|
2,3,2.4|
2,4,0.11|
3,0,0.67|
3,1,3.1|
3,2,2.3|
3,4,2.2|
4,0,8.6|
4,1,3.2|
4,2,1.5|
4,3,2.9|
];
constraint_x9_x6=[
0,1,6.4|
0,2,6.9|
0,3,0.14|
0,4,5.9|
1,0,1.9|
1,2,0.79|
1,3,6.6|
1,4,6.1|
2,0,7.4|
2,1,0.51|
2,3,6.6|
2,4,8.5|
3,0,9.7|
3,1,6.8|
3,2,4.7|
3,4,1.1|
4,0,2.8|
4,1,6.2|
4,2,6.6|
4,3,5.6|
];
constraint_x9_x7=[
0,1,5.2|
0,2,5.2|
0,3,8|
0,4,4.8|
1,0,7.1|
1,2,4.1|
1,3,1.7|
1,4,8.9|
2,0,1.1|
2,1,0.054|
2,3,6.6|
2,4,1.5|
3,0,7.9|
3,1,3.2|
3,2,9.6|
3,4,4.7|
4,0,7.4|
4,1,6|
4,2,8.7|
4,3,9.6|
];
constraint_x10_x2=[
0,1,9.4|
0,2,3.2|
0,3,7.7|
0,4,8.5|
1,0,5.8|
1,2,8.5|
1,3,9.9|
1,4,3.6|
2,0,0.55|
2,1,4.3|
2,3,8.8|
2,4,8|
3,0,6.9|
3,1,8.5|
3,2,6.5|
3,4,2.5|
4,0,2.7|
4,1,8.3|
4,2,3.7|
4,3,7.9|
];
constraint_x10_x5=[
0,1,0.77|
0,2,0.49|
0,3,8.6|
0,4,2.3|
1,0,4.2|
1,2,5.4|
1,3,10|
1,4,6.1|
2,0,0.65|
2,1,3.9|
2,3,8.9|
2,4,1.1|
3,0,4.3|
3,1,4.7|
3,2,0.044|
3,4,1.7|
4,0,7.9|
4,1,8.1|
4,2,8.3|
4,3,8.9|
];
constraint_x10_x8=[
0,1,9|
0,2,0.12|
0,3,1.9|
0,4,5.7|
1,0,0.1|
1,2,2.1|
1,3,0.76|
1,4,3.8|
2,0,8|
2,1,3.2|
2,3,3.5|
2,4,6.8|
3,0,5.4|
3,1,2.6|
3,2,0.31|
3,4,8.1|
4,0,1.6|
4,1,2.9|
4,2,6.8|
4,3,2.5|
];
constraint_x10_x9=[
0,1,3.4|
0,2,2.8|
0,3,4.9|
0,4,5|
1,0,2.8|
1,2,0.21|
1,3,8.6|
1,4,4|
2,0,2.3|
2,1,4.4|
2,3,8.5|
2,4,9.6|
3,0,0.4|
3,1,3.4|
3,2,3.1|
3,4,5|
4,0,7.5|
4,1,7.7|
4,2,7.8|
4,3,9.6|
];
constraint_x11_x2=[
0,1,7.7|
0,2,9.8|
0,3,1.2|
0,4,9.3|
1,0,8.6|
1,2,4.1|
1,3,4|
1,4,9.3|
2,0,7.1|
2,1,3.9|
2,3,9.9|
2,4,0.026|
3,0,2|
3,1,6.7|
3,2,7|
3,4,0.41|
4,0,6.5|
4,1,2.8|
4,2,5.8|
4,3,7.8|
];
constraint_x11_x3=[
0,1,6.5|
0,2,7|
0,3,5|
0,4,7.3|
1,0,5.6|
1,2,7.1|
1,3,6.3|
1,4,1.6|
2,0,8.5|
2,1,6.2|
2,3,0.38|
2,4,8.6|
3,0,7.4|
3,1,2|
3,2,3.8|
3,4,1.9|
4,0,9.8|
4,1,7.7|
4,2,8.7|
4,3,9.1|
];
constraint_x11_x4=[
0,1,3|
0,2,4.3|
0,3,8.6|
0,4,4.2|
1,0,7.4|
1,2,4|
1,3,2.4|
1,4,6.3|
2,0,5.8|
2,1,2.3|
2,3,4.9|
2,4,1.5|
3,0,5.2|
3,1,9|
3,2,2.6|
3,4,5.9|
4,0,9.8|
4,1,8.6|
4,2,4.6|
4,3,8.1|
];
constraint_x11_x5=[
0,1,1.5|
0,2,7.2|
0,3,2.4|
0,4,6|
1,0,5.5|
1,2,5.3|
1,3,5.3|
1,4,3.8|
2,0,3.6|
2,1,8.9|
2,3,8|
2,4,7.8|
3,0,1.7|
3,1,8.5|
3,2,2.7|
3,4,9.1|
4,0,0.89|
4,1,9.6|
4,2,0.43|
4,3,8|
];
constraint_x11_x6=[
0,1,4.2|
0,2,7.7|
0,3,7.6|
0,4,5.7|
1,0,9.1|
1,2,9.1|
1,3,4.5|
1,4,8.2|
2,0,3.5|
2,1,9.3|
2,3,1.2|
2,4,0.8|
3,0,9.7|
3,1,6.8|
3,2,8.6|
3,4,7.1|
4,0,8.8|
4,1,1.9|
4,2,4.2|
4,3,1.6|
];
constraint_x11_x8=[
0,1,7.5|
0,2,7|
0,3,3.7|
0,4,4.5|
1,0,9|
1,2,3.9|
1,3,2|
1,4,0.99|
2,0,6.2|
2,1,1.8|
2,3,9.8|
2,4,9.9|
3,0,6|
3,1,3.8|
3,2,3.3|
3,4,5.1|
4,0,1.3|
4,1,7.9|
4,2,3.6|
4,3,6.2|
];
constraint_x12_x1=[
0,1,7.8|
0,2,8.2|
0,3,8.5|
0,4,2.5|
1,0,2.6|
1,2,6.1|
1,3,8.4|
1,4,5|
2,0,1.4|
2,1,9.5|
2,3,1.5|
2,4,7.9|
3,0,4.3|
3,1,4.3|
3,2,3.8|
3,4,7.3|
4,0,3.1|
4,1,2.1|
4,2,8.5|
4,3,8.4|
];
constraint_x12_x3=[
0,1,4.4|
0,2,3.5|
0,3,7.4|
0,4,2.3|
1,0,6.6|
1,2,0.61|
1,3,9.2|
1,4,4.9|
2,0,1.6|
2,1,6.3|
2,3,2.6|
2,4,8|
3,0,0.77|
3,1,9.3|
3,2,9.5|
3,4,9.2|
4,0,9.3|
4,1,3.5|
4,2,5.3|
4,3,6.9|
];
constraint_x12_x5=[
0,1,7.2|
0,2,6.7|
0,3,4|
0,4,2.9|
1,0,1.6|
1,2,5.8|
1,3,2.7|
1,4,6.4|
2,0,3.5|
2,1,6|
2,3,6.7|
2,4,6.6|
3,0,9.9|
3,1,9|
3,2,3.5|
3,4,9.2|
4,0,2.1|
4,1,3.9|
4,2,7.6|
4,3,4.3|
];
constraint_x12_x8=[
0,1,1.9|
0,2,8.8|
0,3,2.3|
0,4,4.3|
1,0,8.4|
1,2,2.7|
1,3,7.2|
1,4,6.5|
2,0,3.4|
2,1,9|
2,3,5.4|
2,4,3|
3,0,9.1|
3,1,6.2|
3,2,3.1|
3,4,3.8|
4,0,5.6|
4,1,2|
4,2,7.6|
4,3,7.4|
];
constraint_x12_x10=[
0,1,9.3|
0,2,8.8|
0,3,1.8|
0,4,5.2|
1,0,2.8|
1,2,5.3|
1,3,0.66|
1,4,0.37|
2,0,0.042|
2,1,4.9|
2,3,6|
2,4,5.8|
3,0,6.4|
3,1,6.1|
3,2,9.9|
3,4,0.3|
4,0,4.8|
4,1,7.2|
4,2,3.7|
4,3,4.3|
];
constraint_x1_y1=[
0,0,2.8|
0,1,1.6|
0,2,9.1|
0,3,8.7|
0,4,0.86|
1,0,6.9|
1,1,1.6|
1,2,3.9|
1,3,6.5|
1,4,5.5|
2,0,0.96|
2,1,4.9|
2,2,6.3|
2,3,2.4|
2,4,2.1|
3,0,6.5|
3,1,6.1|
3,2,8|
3,3,7.6|
3,4,9.2|
4,0,4.9|
4,1,3.5|
4,2,4.5|
4,3,2.6|
4,4,7.4|
];
constraint_x2_y2=[
0,0,6.5|
0,1,7.5|
0,2,3.3|
0,3,1.4|
0,4,6.8|
1,0,7|
1,1,5.6|
1,2,3.6|
1,3,1.4|
1,4,5.6|
2,0,7|
2,1,5.6|
2,2,1.3|
2,3,3.9|
2,4,4.8|
3,0,5.1|
3,1,9.5|
3,2,3.1|
3,3,1.5|
3,4,0.56|
4,0,6.6|
4,1,7.3|
4,2,9.8|
4,3,5.2|
4,4,6.9|
];
constraint_x3_y3=[
0,0,7.8|
0,1,7|
0,2,8.1|
0,3,8|
0,4,8.7|
1,0,8.4|
1,1,1|
1,2,3.9|
1,3,9.8|
1,4,0.88|
2,0,6.6|
2,1,3.6|
2,2,3.2|
2,3,3.2|
2,4,8.5|
3,0,0.54|
3,1,4.5|
3,2,4|
3,3,4.4|
3,4,1.3|
4,0,9.8|
4,1,4.6|
4,2,1.7|
4,3,8.2|
4,4,7.7|
];
constraint_x4_y4=[
0,0,2.3|
0,1,9|
0,2,8.9|
0,3,3.8|
0,4,7.1|
1,0,4.1|
1,1,0.092|
1,2,9.9|
1,3,9.6|
1,4,7.4|
2,0,1.4|
2,1,1.6|
2,2,5|
2,3,3.1|
2,4,0.81|
3,0,1|
3,1,5.3|
3,2,8.3|
3,3,5.4|
3,4,9.2|
4,0,5.3|
4,1,1.7|
4,2,9.1|
4,3,5.8|
4,4,5.9|
];
constraint_x5_y5=[
0,0,2.8|
0,1,8.7|
0,2,5.3|
0,3,4.4|
0,4,6.5|
1,0,7.9|
1,1,3.7|
1,2,1.9|
1,3,5.7|
1,4,1.9|
2,0,7.8|
2,1,8|
2,2,2.9|
2,3,0.29|
2,4,2.5|
3,0,0.021|
3,1,3.1|
3,2,8|
3,3,6.4|
3,4,3.3|
4,0,6.6|
4,1,8.3|
4,2,4.2|
4,3,1.5|
4,4,7.3|
];
constraint_x6_y6=[
0,0,6|
0,1,7.7|
0,2,4.1|
0,3,3.8|
0,4,1.5|
1,0,0.82|
1,1,5|
1,2,0.77|
1,3,0.23|
1,4,3.6|
2,0,2|
2,1,4.1|
2,2,4|
2,3,2.7|
2,4,7.4|
3,0,3.8|
3,1,9.8|
3,2,3|
3,3,9.1|
3,4,0.044|
4,0,7.6|
4,1,1.6|
4,2,0.95|
4,3,5.3|
4,4,9.3|
];
initial_distribution_y1=[0.34,0.2,0.058,0.36,0.042];
initial_distribution_y2=[0.11,0.21,0.16,0.18,0.35];
initial_distribution_y3=[0.31,0.18,0.027,0.3,0.18];
initial_distribution_y4=[0.15,0.39,0.17,0.043,0.25];
initial_distribution_y5=[0.29,0.11,0.13,0.44,0.03];
initial_distribution_y6=[0.28,0.16,0.24,0.2,0.13];
transition_y1=[
0.2,0.23,0.28,0.088,0.19|
0.29,0.094,0.29,0.3,0.017|
0.3,0.32,0.064,0.053,0.26|
0.071,0.15,0.27,0.24,0.28|
0.2,0.21,0.056,0.27,0.27|
];
transition_y2=[
0.005,0.019,0.22,0.47,0.29|
0.19,0.39,0.014,0.29,0.12|
0.25,0.2,0.27,0.22,0.062|
0.094,0.34,0.34,0.015,0.22|
0.13,0.2,0.23,0.27,0.17|
];
transition_y3=[
0.099,0.31,0.13,0.15,0.31|
0.24,0.27,0.18,0.091,0.22|
0.22,0.2,0.27,0.18,0.13|
0.063,0.32,0.21,0.062,0.34|
0.23,0.27,0.13,0.18,0.2|
];
transition_y4=[
0.13,0.17,0.12,0.16,0.42|
0.26,0.32,0.065,0.26,0.1|
0.19,0.27,0.13,0.12,0.29|
0.14,0.14,0.4,0.11,0.21|
0.018,0.054,0.29,0.32,0.32|
];
transition_y5=[
0.24,0.16,0.13,0.23,0.25|
0.4,0.23,0.096,0.039,0.23|
0.39,0.087,0.074,0.27,0.18|
0.12,0.31,0.042,0.32,0.2|
0.19,0.1,0.3,0.15,0.27|
];
transition_y6=[
0.38,0.095,0.18,0.092,0.25|
0.25,0.29,0.19,0.23,0.04|
0.15,0.2,0.12,0.38,0.14|
0.3,0.12,0.17,0.29,0.11|
0.29,0.077,0.11,0.34,0.18|
];
